\ This file has been generated by DOcplex
\ ENCODING=ISO-8859-1
\Problem name: random_problem.lp

Minimize
 obj: - 8 x0 - 10 x1 - 6 x2 + 10 x3 + 8 x4 - 6 x6 + 4 x7 + 7 x8 - 7 x9 + 6 x10
      + x11 - x12 - 7 x15 + 5 x16 + 4 x17 + 9 x18 - 10 x19 + [ 10 x0*x1
      - 8 x0*x5 + 4 x0*x9 - 8 x0*x15 + 4 x0*x16 + 4 x1*x5 + 16 x1*x9 + 4 x1*x10
      + 18 x1*x15 - 12 x2*x4 - 6 x2*x7 - 14 x2*x8 - 12 x2*x16 - 18 x2*x18
      + 20 x3*x4 - 18 x3*x6 - 10 x3*x8 + 16 x3*x12 + 16 x3*x19 - 8 x4*x10
      + 14 x4*x11 - 6 x4*x12 - 12 x5*x7 + 18 x5*x13 - 14 x5*x16 + 12 x6*x7
      + 16 x6*x9 + 14 x6*x11 - 4 x6*x12 + 12 x7*x13 - 18 x7*x17 + 4 x8*x10
      - 10 x8*x14 - 14 x8*x18 + 6 x9*x10 + 2 x9*x17 + 2 x10*x12 + 20 x11*x13
      + 4 x11*x15 - 2 x11*x18 + 20 x12*x14 + 4 x13*x15 + 10 x13*x17 - 8 x14*x15
      + 20 x14*x16 - 14 x14*x19 - 10 x16*x18 + 8 x17*x18 - 8 x17*x19 ]/2
Subject To
 c0: - x1 + 2 x6 + x15 + x16 - 2 x18 = 0
 c1: - 2 x3 + x5 - x9 - x15 + 2 x19 = -2
 c2: - 2 x4 + x9 - x11 - 2 x14 - 2 x16 = 1
 c3: - 2 x1 + x3 + x4 + 2 x16 + x17 = -1

Bounds
 0 <= x0 <= 1
 0 <= x1 <= 1
 0 <= x2 <= 1
 0 <= x3 <= 1
 0 <= x4 <= 1
 0 <= x5 <= 1
 0 <= x6 <= 1
 0 <= x7 <= 1
 0 <= x8 <= 1
 0 <= x9 <= 1
 0 <= x10 <= 1
 0 <= x11 <= 1
 0 <= x12 <= 1
 0 <= x13 <= 1
 0 <= x14 <= 1
 0 <= x15 <= 1
 0 <= x16 <= 1
 0 <= x17 <= 1
 0 <= x18 <= 1
 0 <= x19 <= 1

Binaries
 x0 x1 x2 x3 x4 x5 x6 x7 x8 x9 x10 x11 x12 x13 x14 x15 x16 x17 x18 x19
End
